TP2 2020041973 = 228750.0
126.0	170.0	127.0	123.0	166.0	0.0	244.0	200.0	0.0	112.0	210.0	140.0	0.0	316.0	142.0	128.0	115.0	195.0	160.0	163.0	194.0	155.0	169.0	175.0	150.0	168.0	178.0	127.0	0.0	303.0	198.0	124.0	0.0	333.0	159.0	138.0	128.0	145.0	178.0	143.0	0.0	319.0	0.0	357.0	0.0	289.0	167.0	183.0	155.0	145.0	135.0	193.0	158.0	137.0	162.0	0.0	360.0	100.0	166.0	120.0	180.0	127.0	172.0	162.0	156.0	0.0	365.0	198.0	183.0	0.0	322.0	0.0	345.0	198.0	0.0	348.0	183.0	108.0	121.0	179.0	122.0	142.0	184.0	168.0	0.0	336.0	200.0	154.0	0.0	299.0	134.0	196.0	0.0	222.0	0.0	301.0	0.0	263.0	118.0	102.0	
